SAT
-74 96 -26 35 -25 76 77 -31 11 65 -61 -7 -49 -42 2 13 86 -32 -41 -63 -70 51 -73 46 -50 81 88 52 44 -94 -28 82 -3 97 93 89 -75 -58 43 -9 -91 54 -68 -45 -48 -55 -18 -4 -15 -33 84 71 83 14 47 29 27 1 90 -38 -78 37 -23 -92 39 24 -72 36 -5 67 -16 -64 -100 -60 6 -12 53 10 19 59 85 -95 30 87 79 66 17 -98 -56 -22 -99 57 21 -69 8 40 -62 20 -80 34 0
